(declare-datatypes () ((Nat (Z) (S (p Nat)))))
(declare-datatypes () ((list (nil) (cons (head Nat) (tail list)))))
(declare-fun zordered (list) Bool)
(declare-fun insert2 (Nat list) list)
(declare-fun isort (list) list)
(declare-fun le (Nat Nat) Bool)
(assert (= (zordered nil) true))
(assert (forall ((y Nat)) (= (zordered (cons y nil)) true)))
(assert
  (forall ((y Nat) (y2 Nat) (xs list))
    (= (zordered (cons y (cons y2 xs)))
      (and (le y y2) (zordered (cons y2 xs))))))
(assert (forall ((x Nat)) (= (insert2 x nil) (cons x nil))))
(assert
  (forall ((x Nat) (z Nat) (xs list))
    (=> (= (le x z) true)
      (= (insert2 x (cons z xs)) (cons x (cons z xs))))))
(assert
  (forall ((x Nat) (z Nat) (xs list))
    (=> (= (le x z) false)
      (= (insert2 x (cons z xs)) (cons z (insert2 x xs))))))
(assert (= (isort nil) nil))
(assert
  (forall ((y Nat) (xs list))
    (= (isort (cons y xs)) (insert2 y (isort xs)))))
(assert (forall ((y Nat)) (= (le Z y) true)))
(assert (forall ((z Nat)) (= (le (S z) Z) false)))
(assert
  (forall ((z Nat) (x2 Nat)) (= (le (S z) (S x2)) (le z x2))))
(assert-not (forall ((x list)) (zordered (isort x))))
(check-sat)
